702 5
10 10 10 10 10 

0 0 0 0 0 0 5 2 14 66 118 170 
0 0 0 0 0 0 1 3 
1 0 0 0 0 1 2 8 4 
2 0 0 0 0 8 3 12 6 5 
3 0 0 0 0 6 3 11 9 7 
7 0 0 0 0 4 2 10 9 
1 0 0 0 0 4 1 10 
6 0 0 0 0 4 1 9 
9 0 0 0 0 3 2 13 454 
2 0 0 0 0 5 1 13 
9 0 0 0 0 9 1 13 
4 0 0 0 0 6 1 13 
0 0 0 0 0 0 5 222 264 276 318 360 
0 0 0 0 0 0 4 15 16 17 18 
1 1 2 1 4 1 5 26 25 21 20 19 
6 2 4 7 4 7 4 26 21 20 19 
7 6 4 4 5 4 2 25 19 
1 2 1 4 7 3 3 25 24 22 
10 6 3 4 4 5 3 28 24 22 
1 9 6 9 4 4 2 28 23 
6 9 5 6 4 4 1 22 
10 4 6 6 4 3 1 23 
3 4 4 5 7 7 4 34 32 31 27 
4 5 5 9 3 9 4 34 32 31 29 
8 5 7 3 5 1 3 32 29 28 
3 4 9 9 5 6 4 31 29 28 266 
6 7 7 3 10 4 1 29 
1 6 8 3 4 5 4 41 39 34 33 
4 7 5 4 3 3 1 30 
9 6 5 3 2 4 3 41 39 33 
10 3 4 6 6 6 3 41 39 33 
4 5 8 3 4 8 2 39 33 
3 8 5 3 7 2 3 37 36 35 
1 4 6 8 5 6 2 36 35 
3 2 4 1 6 2 1 38 
10 2 3 5 3 5 1 38 
5 7 4 4 7 6 1 38 
4 8 4 6 7 5 1 40 
2 3 4 5 3 5 1 40 
8 10 6 6 2 5 1 42 
9 9 3 5 7 3 1 42 
3 4 2 4 8 3 3 47 45 43 
8 8 5 5 6 3 1 44 
2 3 3 1 7 4 2 50 46 
10 4 5 3 4 5 1 46 
10 3 5 2 7 4 3 52 49 48 
3 5 5 8 3 1 2 52 48 
3 9 6 8 2 7 2 55 51 
7 5 3 7 5 5 2 55 51 
6 3 6 4 2 9 1 52 
7 8 8 3 6 4 1 53 
9 6 3 6 5 6 1 53 
7 3 3 6 4 8 1 54 
2 5 5 6 3 6 1 56 
6 2 4 4 4 7 1 56 
7 4 10 8 6 6 1 57 
3 2 5 4 5 5 2 60 58 
1 3 8 5 7 5 2 61 59 
3 6 5 5 4 7 2 64 62 
4 3 8 7 7 6 2 64 62 
4 9 3 5 5 9 2 64 63 
6 4 7 5 5 4 1 63 
9 5 6 7 6 6 1 65 
1 2 3 5 7 7 1 65 
0 0 0 0 0 0 1 702 
0 0 0 0 0 0 5 67 68 69 70 392 
3 2 1 2 1 1 5 78 74 73 72 71 
9 4 3 3 5 3 5 78 74 73 72 71 
4 8 5 3 9 2 3 74 73 71 
7 1 5 2 3 2 2 74 71 
8 6 4 6 4 7 3 80 77 75 
8 4 7 4 8 3 3 80 77 75 
9 4 5 4 7 5 2 80 75 
10 4 6 4 7 3 3 84 80 79 
4 10 5 2 7 5 1 76 
1 7 3 10 4 4 3 86 84 79 
10 6 7 5 5 3 3 86 84 79 
1 8 3 6 5 5 3 83 81 80 
9 7 2 8 8 7 2 83 81 
9 8 3 7 3 6 2 86 82 
4 4 3 6 1 4 1 82 
9 6 7 4 4 5 3 93 91 85 
2 4 6 4 4 4 3 93 91 85 
8 2 7 7 4 5 3 93 91 85 
7 5 5 4 2 6 3 89 88 87 
5 4 5 5 7 4 3 93 88 87 
2 7 7 6 1 7 1 90 
8 6 9 7 6 7 1 90 
4 4 4 5 6 9 1 90 
6 1 7 4 6 5 1 92 
9 5 7 4 3 6 1 92 
7 6 5 6 6 4 1 94 
7 3 5 1 9 9 1 94 
10 4 3 6 4 3 3 99 97 95 
7 5 2 5 9 2 1 96 
3 4 4 3 4 7 2 102 98 
2 1 4 5 7 6 1 98 
6 8 7 6 3 1 2 101 100 
5 6 5 4 7 4 1 100 
10 5 6 10 6 4 3 107 104 103 
3 5 7 5 3 6 3 107 104 103 
9 7 5 4 7 6 3 107 104 103 
10 4 7 4 4 4 1 105 
5 5 5 5 5 7 1 105 
5 6 2 6 8 8 1 106 
9 7 9 6 3 5 1 108 
4 3 5 5 4 6 1 108 
7 6 7 6 5 5 1 109 
9 5 6 8 4 5 2 112 110 
5 7 3 6 7 8 1 111 
7 4 6 5 6 8 2 114 113 
6 7 3 7 3 3 1 113 
5 5 7 3 2 6 2 116 115 
6 4 5 3 6 5 2 116 115 
3 4 2 3 2 4 1 117 
6 2 4 6 6 6 1 117 
0 0 0 0 0 0 1 702 
0 0 0 0 0 0 4 119 120 121 122 
10 3 1 1 1 2 5 130 129 125 124 123 
2 3 8 4 3 6 4 130 125 124 123 
10 4 7 8 3 4 2 129 123 
9 7 8 5 4 4 3 129 128 126 
2 7 5 7 4 3 3 132 128 126 
5 4 2 4 4 6 2 132 127 
4 6 5 5 6 4 1 126 
8 8 7 2 3 5 1 127 
9 6 8 2 6 4 4 138 136 135 131 
6 4 4 7 5 3 4 138 136 135 133 
2 4 6 5 9 3 3 136 133 132 
6 2 5 7 2 7 3 135 133 132 
3 7 5 3 7 4 1 133 
2 3 4 5 8 4 4 145 143 138 137 
10 6 4 4 5 3 1 134 
4 6 4 3 4 6 4 145 143 140 137 
6 5 5 3 6 7 3 145 140 137 
6 5 6 8 8 7 3 143 140 137 
3 5 4 6 3 4 2 141 139 
7 5 7 8 6 5 2 140 139 
10 5 1 4 4 5 1 142 
7 7 4 3 8 4 1 142 
5 5 2 6 8 8 1 142 
7 3 3 7 5 5 1 144 
9 4 4 8 6 5 1 144 
10 4 7 5 5 6 1 146 
4 4 4 7 4 2 1 146 
3 5 3 8 4 4 3 151 149 147 
6 4 6 2 8 10 1 148 
9 5 7 3 3 7 2 154 150 
9 5 2 3 8 5 1 150 
8 5 5 5 6 6 3 156 153 152 
8 5 7 7 7 6 2 156 152 
6 6 5 7 5 5 2 159 155 
3 8 6 9 6 5 2 159 155 
3 6 9 4 1 9 1 156 
7 10 8 7 5 6 1 157 
7 6 4 2 5 5 1 157 
10 4 5 2 3 6 2 158 466 
1 7 6 4 6 5 1 160 
3 7 3 2 3 4 1 160 
8 5 7 9 3 6 1 161 
2 6 3 7 4 2 2 164 162 
7 1 4 4 5 7 2 165 163 
2 7 3 6 8 4 2 168 166 
7 3 6 2 5 4 2 168 166 
3 2 4 3 5 5 2 168 167 
1 2 6 5 7 2 1 167 
7 4 6 6 3 5 1 169 
5 5 5 6 3 6 1 169 
0 0 0 0 0 0 1 702 
0 0 0 0 0 0 5 171 172 173 175 185 
10 1 1 1 1 1 4 186 183 180 176 
8 6 5 4 7 6 4 186 183 179 177 
7 8 4 5 7 4 2 177 174 
6 4 4 3 3 7 4 190 186 183 178 
7 6 7 6 4 3 2 186 177 
10 4 7 5 4 3 1 177 
6 7 9 6 5 1 2 190 178 
3 8 7 5 2 3 3 189 188 181 
9 4 5 3 10 10 3 190 189 182 
1 5 5 2 4 7 2 189 184 
9 6 4 5 2 7 1 182 
2 4 7 5 2 6 1 184 
10 8 4 7 5 5 1 184 
5 4 5 7 5 3 4 197 196 191 187 
2 6 6 6 4 1 2 197 186 
6 4 3 5 3 7 2 191 187 
10 4 1 4 8 5 2 194 192 
9 4 4 6 6 4 2 194 193 
2 4 7 5 5 5 1 191 
9 7 5 10 5 4 1 191 
9 4 5 4 8 4 1 193 
5 5 2 3 3 4 1 193 
8 6 8 6 3 6 1 195 
10 5 5 6 4 3 1 195 
7 6 6 6 4 3 2 203 198 
10 4 4 3 5 4 3 203 201 199 
2 6 4 4 4 6 1 198 
1 5 4 9 7 3 2 201 199 
4 6 8 6 4 4 1 200 
7 7 7 2 5 6 3 207 204 202 
8 6 8 7 9 5 3 209 204 202 
7 7 4 4 6 2 2 212 205 
6 4 4 3 3 10 2 209 204 
2 2 6 7 9 6 1 206 
2 5 4 4 5 5 1 206 
9 5 6 4 4 3 1 208 
1 5 4 7 5 9 2 209 315 
1 2 6 4 8 8 1 210 
4 5 3 6 8 3 1 210 
5 5 6 3 4 4 1 211 
9 3 3 3 3 2 1 213 
7 7 7 6 5 6 1 213 
7 6 6 4 5 5 3 218 216 214 
8 1 3 7 8 3 1 215 
3 4 6 8 6 10 2 220 217 
9 4 5 5 6 9 1 217 
2 5 5 4 4 4 1 219 
8 5 2 5 4 9 1 219 
6 9 6 5 7 3 1 221 
4 2 3 5 2 9 1 221 
0 0 0 0 0 0 1 702 
0 0 0 0 0 0 2 223 227 
10 0 2 1 2 1 1 224 
10 0 7 8 3 7 2 226 225 
6 0 5 6 6 5 3 233 231 228 
4 0 4 8 9 3 3 244 231 229 
10 0 10 7 3 2 2 231 229 
2 0 2 8 5 8 1 229 
8 0 2 4 5 5 3 236 235 230 
4 0 4 8 5 3 3 245 232 545 
1 0 7 4 6 7 2 245 235 
8 0 7 4 5 4 1 234 
8 0 3 5 4 8 1 234 
3 0 3 5 6 3 3 246 243 237 
3 0 4 8 4 8 3 246 243 237 
1 0 2 6 7 5 5 250 246 243 240 239 
6 0 7 4 9 3 3 250 240 238 
9 0 2 7 6 6 1 239 
9 0 3 4 10 4 3 262 251 241 
7 0 4 4 3 7 2 251 241 
9 0 5 1 2 3 2 257 242 
2 0 3 3 6 6 4 261 254 253 247 
6 0 6 7 4 6 3 262 261 247 
4 0 7 6 9 3 3 261 252 246 
1 0 6 4 4 8 2 252 246 
1 0 6 4 4 6 3 260 255 251 
5 0 3 3 5 4 1 248 
2 0 5 4 3 7 1 249 
9 0 4 6 4 1 2 259 252 
7 0 6 5 4 5 2 259 252 
9 0 6 4 7 6 2 254 253 
9 0 8 2 6 3 2 260 255 
2 0 8 7 4 4 2 259 256 
3 0 6 5 5 4 2 259 256 
1 0 1 7 3 4 1 256 
2 0 8 3 6 5 1 258 
9 0 1 7 5 4 1 259 
4 0 7 4 3 6 1 263 
3 0 10 4 6 7 1 263 
3 0 7 2 5 6 1 263 
4 0 6 7 4 7 1 263 
9 0 3 4 3 6 1 263 
0 0 0 0 0 0 1 702 
0 0 0 0 0 0 2 265 267 
6 0 0 0 0 1 1 266 
1 0 0 0 0 4 2 270 268 
1 0 0 0 0 5 3 269 268 572 
1 0 0 0 0 6 2 272 271 
3 0 0 0 0 5 2 272 271 
8 0 0 0 0 7 2 273 271 
3 0 0 0 0 5 1 274 
7 0 0 0 0 6 1 273 
4 0 0 0 0 9 1 275 
5 0 0 0 0 2 1 275 
0 0 0 0 0 0 5 402 434 446 478 510 
0 0 0 0 0 0 2 277 281 
4 0 1 1 1 1 1 278 
4 0 5 3 4 3 2 280 279 
1 0 4 6 4 3 3 287 285 282 
10 0 2 5 6 8 3 299 285 283 
4 0 9 6 5 2 2 285 283 
2 0 5 5 6 9 1 283 
8 0 5 7 3 4 3 290 289 284 
8 0 1 5 2 6 2 298 286 
8 0 5 6 4 8 2 298 289 
10 0 9 5 4 8 1 288 
4 0 7 3 6 8 1 288 
8 0 5 6 3 3 3 301 297 291 
3 0 5 3 2 4 3 301 297 291 
7 0 7 5 4 5 5 304 301 297 294 293 
9 0 4 6 9 5 3 304 294 292 
6 0 6 6 2 4 1 293 
7 0 3 5 5 4 3 316 305 295 
8 0 6 5 7 8 2 305 295 
6 0 3 6 5 3 2 311 296 
9 0 7 4 6 4 3 315 309 300 
2 0 6 2 6 4 3 316 315 300 
7 0 8 3 9 4 2 306 301 
6 0 9 5 4 3 2 306 301 
5 0 5 3 7 10 1 302 
4 0 9 6 4 4 2 314 305 
4 0 2 6 5 4 1 303 
9 0 3 6 6 5 2 313 306 
1 0 2 7 4 6 2 313 306 
7 0 3 4 6 3 3 309 307 637 
5 0 4 2 4 6 2 314 308 
4 0 8 3 5 5 2 313 310 
1 0 5 7 2 4 1 310 
9 0 5 4 5 8 1 310 
10 0 7 2 7 4 1 312 
9 0 4 7 10 2 1 313 
8 0 4 7 7 4 1 317 
6 0 2 9 9 5 1 317 
7 0 5 5 3 5 1 317 
2 0 5 6 6 9 1 317 
4 0 5 8 3 5 1 317 
0 0 0 0 0 0 1 702 
0 0 0 0 0 0 2 319 323 
7 1 0 1 1 1 1 320 
6 2 0 4 5 5 2 322 321 
5 8 0 2 3 3 3 331 327 324 
6 5 0 10 4 7 3 339 333 325 
9 3 0 9 5 3 3 333 327 325 
4 7 0 3 6 4 2 333 325 
5 5 0 4 3 9 2 330 326 
1 3 0 4 4 5 2 341 328 
4 10 0 3 2 7 2 341 330 
8 5 0 4 7 5 1 329 
10 5 0 5 7 4 3 344 340 332 
9 3 0 6 5 5 3 344 340 332 
6 5 0 5 5 6 3 344 340 332 
10 3 0 7 3 8 3 349 336 334 
5 5 0 8 5 6 5 358 353 349 344 336 
5 7 0 10 4 4 1 335 
3 5 0 4 2 4 4 358 353 346 337 
4 3 0 4 4 6 2 346 337 
1 3 0 10 7 5 1 338 
9 7 0 2 7 8 3 357 351 342 
3 6 0 3 4 4 3 350 346 344 
9 2 0 5 6 8 2 358 343 
10 5 0 9 5 7 2 350 344 
1 2 0 5 4 4 1 343 
7 7 0 2 7 9 1 345 
10 6 0 8 6 3 3 356 351 348 
2 5 0 4 3 4 2 355 347 
5 5 0 3 5 3 2 351 348 
3 4 0 2 10 2 2 356 350 
8 6 0 7 5 6 3 355 352 453 
7 4 0 5 9 6 1 350 
4 2 0 4 7 3 1 352 
6 4 0 5 5 3 1 352 
9 7 0 4 1 7 1 354 
4 7 0 4 7 7 1 355 
8 7 0 7 4 5 1 359 
1 6 0 3 7 2 1 359 
2 7 0 4 10 5 1 359 
1 7 0 7 5 2 1 359 
6 6 0 4 1 5 1 359 
0 0 0 0 0 0 1 702 
0 0 0 0 0 0 2 361 363 
8 0 1 1 1 1 1 362 
6 0 8 5 6 3 2 365 364 
2 0 7 4 2 2 2 366 364 
10 0 6 1 5 2 4 376 369 368 367 
5 0 2 6 7 1 3 369 368 366 
7 0 2 10 5 8 2 367 447 
7 0 8 2 6 6 3 372 371 370 
10 0 7 3 5 3 2 373 371 
3 0 6 6 6 9 2 373 371 
2 0 7 1 5 10 2 377 373 
10 0 4 3 2 5 2 377 374 
6 0 5 5 8 5 2 377 374 
1 0 6 4 9 6 1 374 
7 0 4 4 5 6 1 375 
8 0 4 5 3 5 3 382 379 378 
9 0 2 7 5 7 2 382 377 
3 0 4 5 3 6 2 381 380 
10 0 5 9 2 6 3 385 383 381 
5 0 5 10 9 4 1 380 
10 0 4 6 6 1 3 386 385 383 
8 0 5 5 7 9 4 391 389 387 386 
3 0 4 6 4 8 3 389 387 385 
1 0 5 6 3 3 1 384 
7 0 4 6 4 3 2 389 387 
8 0 2 4 4 5 3 392 391 388 
8 0 7 6 4 6 2 392 390 
2 0 7 7 6 6 1 388 
6 0 7 4 5 8 2 393 390 
3 0 2 5 5 4 2 396 392 
9 0 5 4 4 3 2 396 394 
8 0 5 3 5 4 2 396 394 
7 0 9 7 3 6 1 393 
9 0 5 4 5 4 2 397 395 
10 0 7 8 7 2 2 397 395 
9 0 4 2 2 7 2 400 398 
6 0 4 6 7 6 2 400 397 
1 0 5 4 6 7 1 399 
6 0 3 6 2 5 1 399 
3 0 10 8 8 5 1 401 
1 0 3 2 9 3 1 401 
0 0 0 0 0 0 1 702 
0 0 0 0 0 0 3 403 404 410 
2 1 1 0 0 2 2 414 405 
4 4 3 0 0 6 2 414 405 
2 5 3 0 0 4 2 409 406 
3 7 5 0 0 6 2 412 407 
4 5 3 0 0 4 1 408 
6 8 4 0 0 4 3 418 415 411 
10 5 8 0 0 5 2 418 412 
4 3 3 0 0 8 2 414 413 
3 6 1 0 0 5 1 413 
10 7 3 0 0 6 1 413 
6 4 7 0 0 4 3 423 421 416 
1 5 4 0 0 3 3 423 418 416 
2 5 10 0 0 4 2 423 417 
1 9 5 0 0 7 1 417 
6 5 5 0 0 10 2 425 419 
8 3 6 0 0 5 1 419 
7 6 5 0 0 6 1 420 
5 5 6 0 0 9 1 422 
10 2 5 0 0 3 1 422 
3 5 1 0 0 7 4 432 427 424 503 
4 5 7 0 0 7 2 432 424 
7 4 4 0 0 4 4 431 430 428 426 
9 4 7 0 0 4 2 428 426 
6 6 9 0 0 6 1 429 
2 7 4 0 0 2 1 428 
3 8 8 0 0 1 1 433 
8 4 10 0 0 4 1 433 
7 3 4 0 0 1 1 433 
3 4 4 0 0 6 1 433 
4 5 5 0 0 7 1 433 
0 0 0 0 0 0 1 702 
0 0 0 0 0 0 5 435 439 442 443 444 
10 1 0 0 0 0 3 441 436 528 
9 5 0 0 0 0 1 437 
5 10 0 0 0 0 1 438 
5 8 0 0 0 0 1 440 
9 7 0 0 0 0 1 440 
5 1 0 0 0 0 1 445 
4 5 0 0 0 0 1 445 
8 6 0 0 0 0 1 445 
3 3 0 0 0 0 1 445 
5 4 0 0 0 0 1 445 
0 0 0 0 0 0 5 542 564 576 598 620 
0 0 0 0 0 0 3 447 453 476 
2 1 0 1 1 0 2 475 448 
10 7 0 6 5 0 2 473 449 
3 10 0 5 4 0 1 450 
5 4 0 9 8 0 3 472 471 451 
5 3 0 2 6 0 2 469 452 
3 8 0 6 3 0 3 470 468 454 
10 4 0 2 8 0 6 474 471 469 468 467 458 
10 3 0 9 7 0 1 455 
6 3 0 6 3 0 2 467 456 
7 9 0 4 7 0 1 457 
9 5 0 8 4 0 2 458 596 
8 6 0 3 6 0 2 466 459 
4 9 0 5 5 0 4 465 464 463 460 
8 3 0 5 4 0 1 461 
2 3 0 7 5 0 1 462 
10 4 0 8 2 0 1 477 
3 5 0 2 6 0 1 477 
4 6 0 6 6 0 1 477 
7 3 0 3 6 0 1 477 
10 2 0 4 6 0 1 477 
8 2 0 3 4 0 1 477 
7 7 0 5 3 0 1 477 
9 4 0 3 6 0 1 477 
3 8 0 3 5 0 1 477 
3 6 0 5 3 0 1 477 
1 5 0 6 4 0 1 477 
9 4 0 7 7 0 1 477 
1 4 0 8 5 0 1 477 
2 8 0 6 6 0 1 477 
3 4 0 3 5 0 1 477 
0 0 0 0 0 0 1 702 
0 0 0 0 0 0 3 479 493 508 
5 1 1 0 1 0 2 507 480 
6 7 4 0 3 0 3 505 504 481 
10 4 5 0 9 0 1 482 
5 3 8 0 8 0 3 503 483 532 
9 8 5 0 7 0 3 502 501 484 
1 9 5 0 5 0 2 500 485 
6 2 4 0 5 0 1 486 
1 1 2 0 4 0 2 499 487 
1 4 4 0 5 0 1 488 
6 7 5 0 2 0 3 498 497 489 
2 4 3 0 4 0 2 496 490 
7 7 8 0 7 0 2 495 491 
9 4 5 0 4 0 1 492 
8 5 6 0 5 0 1 494 
10 9 8 0 6 0 1 506 
5 5 5 0 2 0 1 509 
5 5 4 0 6 0 1 509 
4 2 4 0 5 0 1 509 
7 5 10 0 2 0 1 509 
8 3 7 0 7 0 1 509 
5 7 5 0 4 0 1 509 
1 9 5 0 5 0 1 509 
8 8 2 0 2 0 1 509 
6 3 6 0 5 0 1 509 
8 5 5 0 10 0 1 509 
10 6 6 0 3 0 1 509 
2 2 4 0 3 0 1 509 
8 7 5 0 9 0 1 509 
10 5 6 0 7 0 1 509 
9 3 3 0 5 0 1 509 
0 0 0 0 0 0 1 702 
0 0 0 0 0 0 3 511 512 540 
1 0 2 1 2 0 2 539 513 
6 0 7 6 4 0 3 539 525 514 
2 0 1 8 4 0 2 525 514 
2 0 5 4 3 0 1 515 
1 0 6 2 8 0 3 538 537 516 
6 0 6 5 4 0 1 517 
8 0 3 2 9 0 3 536 535 518 
5 0 10 3 3 0 2 534 519 
8 0 6 2 10 0 1 520 
3 0 4 3 5 0 1 521 
1 0 5 10 7 0 2 533 522 
6 0 3 3 3 0 1 523 
4 0 2 4 8 0 3 529 527 524 
4 0 4 4 8 0 3 532 530 526 
8 0 3 9 1 0 2 533 528 
1 0 2 7 3 0 1 531 
8 0 5 7 4 0 1 530 
8 0 8 7 6 0 1 529 
7 0 2 6 4 0 1 541 
4 0 3 4 6 0 1 541 
4 0 6 2 8 0 1 541 
5 0 10 2 6 0 1 541 
7 0 4 5 3 0 1 541 
9 0 7 7 5 0 2 541 645 
3 0 3 8 2 0 1 541 
5 0 6 7 6 0 1 541 
9 0 8 8 3 0 1 541 
7 0 7 4 5 0 1 541 
6 0 9 7 5 0 1 541 
1 0 3 3 5 0 1 541 
0 0 0 0 0 0 1 702 
0 0 0 0 0 0 2 543 562 
6 0 4 1 0 0 1 544 
7 0 2 5 0 0 2 548 545 
1 0 4 1 0 0 1 546 
10 0 7 5 0 0 2 555 547 
7 0 6 5 0 0 4 560 554 551 549 
7 0 2 8 0 0 3 560 554 550 
9 0 10 5 0 0 1 550 
8 0 4 4 0 0 2 559 552 
9 0 5 8 0 0 2 559 552 
8 0 4 6 0 0 3 558 557 553 
8 0 7 5 0 0 1 556 
10 0 3 5 0 0 1 556 
3 0 6 6 0 0 2 561 655 
4 0 6 7 0 0 1 563 
1 0 4 5 0 0 1 563 
5 0 10 5 0 0 1 563 
4 0 4 5 0 0 1 563 
9 0 5 6 0 0 1 563 
7 0 3 4 0 0 1 563 
10 0 4 4 0 0 1 563 
0 0 0 0 0 0 1 702 
0 0 0 0 0 0 3 565 567 568 
5 0 1 0 0 0 1 566 
7 0 6 0 0 0 3 574 571 569 
1 0 5 0 0 0 3 574 573 571 
9 0 6 0 0 0 2 573 571 
10 0 6 0 0 0 1 570 
10 0 4 0 0 0 3 573 572 618 
8 0 6 0 0 0 1 572 
1 0 4 0 0 0 1 575 
5 0 7 0 0 0 1 575 
8 0 5 0 0 0 1 575 
0 0 0 0 0 0 5 642 654 666 678 690 
0 0 0 0 0 0 2 577 579 
2 0 2 0 0 2 2 583 578 
4 0 3 0 0 3 1 580 
8 0 10 0 0 5 2 580 661 
6 0 5 0 0 5 3 585 582 581 
2 0 8 0 0 6 2 587 584 
7 0 4 0 0 10 3 589 588 587 
3 0 2 0 0 3 3 589 586 585 
8 0 4 0 0 8 3 596 588 586 
10 0 4 0 0 3 3 595 594 591 
10 0 7 0 0 5 2 594 590 
6 0 3 0 0 4 2 594 590 
5 0 5 0 0 5 3 595 594 593 
1 0 4 0 0 3 3 596 594 593 
9 0 4 0 0 6 1 591 
2 0 3 0 0 4 1 592 
6 0 8 0 0 4 1 593 
7 0 8 0 0 4 1 597 
5 0 5 0 0 7 1 597 
6 0 6 0 0 9 1 597 
10 0 5 0 0 4 1 597 
0 0 0 0 0 0 1 702 
0 0 0 0 0 0 3 599 602 605 
9 0 2 0 1 0 2 607 600 
2 0 4 0 8 0 2 612 601 
1 0 7 0 6 0 2 608 603 
9 0 5 0 5 0 4 616 613 608 607 
4 0 6 0 2 0 1 604 
6 0 4 0 7 0 3 616 615 606 
3 0 5 0 4 0 3 615 607 606 
3 0 4 0 8 0 4 618 611 609 658 
5 0 5 0 7 0 2 618 611 
7 0 5 0 5 0 1 609 
2 0 5 0 5 0 1 610 
2 0 6 0 5 0 1 614 
10 0 5 0 4 0 1 614 
5 0 10 0 4 0 1 615 
10 0 7 0 6 0 1 615 
5 0 5 0 8 0 1 617 
7 0 2 0 6 0 1 617 
9 0 5 0 4 0 1 618 
4 0 4 0 3 0 1 619 
9 0 4 0 2 0 1 619 
0 0 0 0 0 0 1 702 
0 0 0 0 0 0 4 621 624 628 640 
2 0 0 1 1 0 2 634 622 
3 0 0 9 5 0 2 639 623 
5 0 0 8 3 0 4 638 633 631 625 
5 0 0 3 8 0 5 638 637 634 633 630 
4 0 0 4 6 0 2 637 626 
7 0 0 4 10 0 1 627 
10 0 0 5 8 0 2 636 629 
6 0 0 9 4 0 2 637 630 
1 0 0 8 3 0 1 630 
7 0 0 4 4 0 1 632 
3 0 0 3 5 0 1 632 
10 0 0 7 7 0 2 635 643 
8 0 0 3 7 0 1 636 
6 0 0 4 3 0 1 635 
5 0 0 2 1 0 1 641 
9 0 0 4 7 0 1 641 
7 0 0 6 3 0 1 641 
6 0 0 4 6 0 1 641 
7 0 0 6 6 0 1 641 
8 0 0 6 3 0 1 641 
0 0 0 0 0 0 1 702 
0 0 0 0 0 0 3 643 644 647 
2 0 0 0 0 1 3 648 646 673 
2 0 0 0 0 7 1 645 
7 0 0 0 0 4 2 649 648 
8 0 0 0 0 5 2 650 649 
5 0 0 0 0 6 2 650 649 
8 0 0 0 0 7 2 652 650 
6 0 0 0 0 6 2 652 651 
9 0 0 0 0 5 1 651 
9 0 0 0 0 2 1 653 
9 0 0 0 0 7 1 653 
0 0 0 0 0 0 1 702 
0 0 0 0 0 0 3 655 660 664 
3 0 2 0 0 0 2 659 656 
2 0 4 0 0 0 2 663 657 
4 0 9 0 0 0 2 662 658 
8 0 5 0 0 0 1 661 
1 0 4 0 0 0 1 662 
4 0 4 0 0 0 1 661 
2 0 4 0 0 0 1 665 
9 0 4 0 0 0 1 665 
5 0 4 0 0 0 2 665 668 
7 0 10 0 0 0 1 665 
0 0 0 0 0 0 1 702 
0 0 0 0 0 0 2 667 670 
1 0 0 1 0 0 2 672 668 
5 0 0 6 0 0 2 671 669 
3 0 0 6 0 0 3 676 675 673 
3 0 0 7 0 0 3 676 675 673 
5 0 0 7 0 0 2 675 674 
3 0 0 5 0 0 3 675 674 700 
1 0 0 4 0 0 1 674 
6 0 0 4 0 0 1 677 
9 0 0 5 0 0 1 677 
3 0 0 5 0 0 1 677 
0 0 0 0 0 0 1 702 
0 0 0 0 0 0 4 679 680 682 683 
4 0 0 0 0 3 2 681 692 
8 0 0 0 0 4 1 681 
1 0 0 0 0 10 3 686 685 684 
4 0 0 0 0 3 2 686 684 
5 0 0 0 0 4 2 685 684 
2 0 0 0 0 4 1 687 
6 0 0 0 0 6 1 687 
8 0 0 0 0 6 1 687 
6 0 0 0 0 5 1 688 
6 0 0 0 0 5 1 689 
0 0 0 0 0 0 1 702 
0 0 0 0 0 0 2 691 693 
5 0 0 0 0 1 2 700 692 
8 0 0 0 0 3 4 699 698 697 694 
1 0 0 0 0 8 2 697 695 
5 0 0 0 0 7 1 695 
9 0 0 0 0 10 1 696 
8 0 0 0 0 3 1 701 
7 0 0 0 0 7 1 701 
8 0 0 0 0 2 1 701 
1 0 0 0 0 3 1 701 
2 0 0 0 0 6 1 701 
0 0 0 0 0 0 1 702 
0 0 0 0 0 0 0 
